20
587 233 220
99 64 62
110 43 37
96 73 50
114 53 35
105 27 22
75 66 51
72 61 48
102 46 32
59 57 45
111 45 33
90 74 58
55 51 34
98 73 21
85 61 35
41 35 31
89 86 77
61 55 47
96 66 45
98 79 58
89 61 34
thpack7_71